p cnf 231 336
41 42 1 64 0
41 42 1 -64 0
-41 -42 1 65 0
-41 -42 1 -65 0
41 -42 -1 66 0
41 -42 -1 -66 0
-41 42 -1 67 0
-41 42 -1 -67 0
1 43 2 68 0
1 43 2 -68 0
-1 -43 2 69 0
-1 -43 2 -69 0
1 -43 -2 70 0
1 -43 -2 -70 0
-1 43 -2 71 0
-1 43 -2 -71 0
2 44 3 72 0
2 44 3 -72 0
-2 -44 3 73 0
-2 -44 3 -73 0
2 -44 -3 74 0
2 -44 -3 -74 0
-2 44 -3 75 0
-2 44 -3 -75 0
3 45 4 76 0
3 45 4 -76 0
-3 -45 4 77 0
-3 -45 4 -77 0
3 -45 -4 78 0
3 -45 -4 -78 0
-3 45 -4 79 0
-3 45 -4 -79 0
4 46 5 80 0
4 46 5 -80 0
-4 -46 5 81 0
-4 -46 5 -81 0
4 -46 -5 82 0
4 -46 -5 -82 0
-4 46 -5 83 0
-4 46 -5 -83 0
5 47 6 84 0
5 47 6 -84 0
-5 -47 6 85 0
-5 -47 6 -85 0
5 -47 -6 86 0
5 -47 -6 -86 0
-5 47 -6 87 0
-5 47 -6 -87 0
6 48 7 88 0
6 48 7 -88 0
-6 -48 7 89 0
-6 -48 7 -89 0
6 -48 -7 90 0
6 -48 -7 -90 0
-6 48 -7 91 0
-6 48 -7 -91 0
7 49 8 92 0
7 49 8 -92 0
-7 -49 8 93 0
-7 -49 8 -93 0
7 -49 -8 94 0
7 -49 -8 -94 0
-7 49 -8 95 0
-7 49 -8 -95 0
8 50 9 96 0
8 50 9 -96 0
-8 -50 9 97 0
-8 -50 9 -97 0
8 -50 -9 98 0
8 -50 -9 -98 0
-8 50 -9 99 0
-8 50 -9 -99 0
9 51 10 100 0
9 51 10 -100 0
-9 -51 10 101 0
-9 -51 10 -101 0
9 -51 -10 102 0
9 -51 -10 -102 0
-9 51 -10 103 0
-9 51 -10 -103 0
10 52 11 104 0
10 52 11 -104 0
-10 -52 11 105 0
-10 -52 11 -105 0
10 -52 -11 106 0
10 -52 -11 -106 0
-10 52 -11 107 0
-10 52 -11 -107 0
11 53 12 108 0
11 53 12 -108 0
-11 -53 12 109 0
-11 -53 12 -109 0
11 -53 -12 110 0
11 -53 -12 -110 0
-11 53 -12 111 0
-11 53 -12 -111 0
12 54 13 112 0
12 54 13 -112 0
-12 -54 13 113 0
-12 -54 13 -113 0
12 -54 -13 114 0
12 -54 -13 -114 0
-12 54 -13 115 0
-12 54 -13 -115 0
13 55 14 116 0
13 55 14 -116 0
-13 -55 14 117 0
-13 -55 14 -117 0
13 -55 -14 118 0
13 -55 -14 -118 0
-13 55 -14 119 0
-13 55 -14 -119 0
14 56 15 120 0
14 56 15 -120 0
-14 -56 15 121 0
-14 -56 15 -121 0
14 -56 -15 122 0
14 -56 -15 -122 0
-14 56 -15 123 0
-14 56 -15 -123 0
15 57 16 124 0
15 57 16 -124 0
-15 -57 16 125 0
-15 -57 16 -125 0
15 -57 -16 126 0
15 -57 -16 -126 0
-15 57 -16 127 0
-15 57 -16 -127 0
16 58 17 128 0
16 58 17 -128 0
-16 -58 17 129 0
-16 -58 17 -129 0
16 -58 -17 130 0
16 -58 -17 -130 0
-16 58 -17 131 0
-16 58 -17 -131 0
17 59 18 132 0
17 59 18 -132 0
-17 -59 18 133 0
-17 -59 18 -133 0
17 -59 -18 134 0
17 -59 -18 -134 0
-17 59 -18 135 0
-17 59 -18 -135 0
18 60 19 136 0
18 60 19 -136 0
-18 -60 19 137 0
-18 -60 19 -137 0
18 -60 -19 138 0
18 -60 -19 -138 0
-18 60 -19 139 0
-18 60 -19 -139 0
19 61 20 140 0
19 61 20 -140 0
-19 -61 20 141 0
-19 -61 20 -141 0
19 -61 -20 142 0
19 -61 -20 -142 0
-19 61 -20 143 0
-19 61 -20 -143 0
20 62 63 144 0
20 62 63 -144 0
-20 -62 63 145 0
-20 -62 63 -145 0
20 -62 -63 146 0
20 -62 -63 -146 0
-20 62 -63 147 0
-20 62 -63 -147 0
21 62 63 148 0
21 62 63 -148 0
-21 -62 63 149 0
-21 -62 63 -149 0
21 -62 -63 150 0
21 -62 -63 -150 0
-21 62 -63 151 0
-21 62 -63 -151 0
22 61 21 152 0
22 61 21 -152 0
-22 -61 21 153 0
-22 -61 21 -153 0
22 -61 -21 154 0
22 -61 -21 -154 0
-22 61 -21 155 0
-22 61 -21 -155 0
23 60 22 156 0
23 60 22 -156 0
-23 -60 22 157 0
-23 -60 22 -157 0
23 -60 -22 158 0
23 -60 -22 -158 0
-23 60 -22 159 0
-23 60 -22 -159 0
24 59 23 160 0
24 59 23 -160 0
-24 -59 23 161 0
-24 -59 23 -161 0
24 -59 -23 162 0
24 -59 -23 -162 0
-24 59 -23 163 0
-24 59 -23 -163 0
25 58 24 164 0
25 58 24 -164 0
-25 -58 24 165 0
-25 -58 24 -165 0
25 -58 -24 166 0
25 -58 -24 -166 0
-25 58 -24 167 0
-25 58 -24 -167 0
26 57 25 168 0
26 57 25 -168 0
-26 -57 25 169 0
-26 -57 25 -169 0
26 -57 -25 170 0
26 -57 -25 -170 0
-26 57 -25 171 0
-26 57 -25 -171 0
27 56 26 172 0
27 56 26 -172 0
-27 -56 26 173 0
-27 -56 26 -173 0
27 -56 -26 174 0
27 -56 -26 -174 0
-27 56 -26 175 0
-27 56 -26 -175 0
28 55 27 176 0
28 55 27 -176 0
-28 -55 27 177 0
-28 -55 27 -177 0
28 -55 -27 178 0
28 -55 -27 -178 0
-28 55 -27 179 0
-28 55 -27 -179 0
29 54 28 180 0
29 54 28 -180 0
-29 -54 28 181 0
-29 -54 28 -181 0
29 -54 -28 182 0
29 -54 -28 -182 0
-29 54 -28 183 0
-29 54 -28 -183 0
30 53 29 184 0
30 53 29 -184 0
-30 -53 29 185 0
-30 -53 29 -185 0
30 -53 -29 186 0
30 -53 -29 -186 0
-30 53 -29 187 0
-30 53 -29 -187 0
31 52 30 188 0
31 52 30 -188 0
-31 -52 30 189 0
-31 -52 30 -189 0
31 -52 -30 190 0
31 -52 -30 -190 0
-31 52 -30 191 0
-31 52 -30 -191 0
32 51 31 192 0
32 51 31 -192 0
-32 -51 31 193 0
-32 -51 31 -193 0
32 -51 -31 194 0
32 -51 -31 -194 0
-32 51 -31 195 0
-32 51 -31 -195 0
33 50 32 196 0
33 50 32 -196 0
-33 -50 32 197 0
-33 -50 32 -197 0
33 -50 -32 198 0
33 -50 -32 -198 0
-33 50 -32 199 0
-33 50 -32 -199 0
34 49 33 200 0
34 49 33 -200 0
-34 -49 33 201 0
-34 -49 33 -201 0
34 -49 -33 202 0
34 -49 -33 -202 0
-34 49 -33 203 0
-34 49 -33 -203 0
35 48 34 204 0
35 48 34 -204 0
-35 -48 34 205 0
-35 -48 34 -205 0
35 -48 -34 206 0
35 -48 -34 -206 0
-35 48 -34 207 0
-35 48 -34 -207 0
36 47 35 208 0
36 47 35 -208 0
-36 -47 35 209 0
-36 -47 35 -209 0
36 -47 -35 210 0
36 -47 -35 -210 0
-36 47 -35 211 0
-36 47 -35 -211 0
37 46 36 212 0
37 46 36 -212 0
-37 -46 36 213 0
-37 -46 36 -213 0
37 -46 -36 214 0
37 -46 -36 -214 0
-37 46 -36 215 0
-37 46 -36 -215 0
38 45 37 216 0
38 45 37 -216 0
-38 -45 37 217 0
-38 -45 37 -217 0
38 -45 -37 218 0
38 -45 -37 -218 0
-38 45 -37 219 0
-38 45 -37 -219 0
39 44 38 220 0
39 44 38 -220 0
-39 -44 38 221 0
-39 -44 38 -221 0
39 -44 -38 222 0
39 -44 -38 -222 0
-39 44 -38 223 0
-39 44 -38 -223 0
40 43 39 224 0
40 43 39 -224 0
-40 -43 39 225 0
-40 -43 39 -225 0
40 -43 -39 226 0
40 -43 -39 -226 0
-40 43 -39 227 0
-40 43 -39 -227 0
41 42 -40 228 0
41 42 -40 -228 0
-41 -42 -40 229 0
-41 -42 -40 -229 0
41 -42 40 230 0
41 -42 40 -230 0
-41 42 40 231 0
-41 42 40 -231 0
